NAME : sim71.89945.tour
COMMENT : Length = 89945
COMMENT : Found by LKH [Keld Helsgaun] Sat Sep 15 19:20:51 2018
TYPE : TOUR
DIMENSION : 71
TOUR_SECTION
1
14
62
71
41
56
59
11
64
6
3
38
55
66
7
12
36
21
28
33
43
8
31
30
5
50
13
70
32
9
48
2
54
25
46
42
10
63
45
22
61
57
51
4
49
39
26
52
29
47
15
23
60
37
24
68
40
18
34
16
19
27
67
35
69
65
17
58
53
20
44
-1
EOF
